NAME : 22.79534.tour
COMMENT : Length = 79534
COMMENT : Found by LKH-3 [Keld Helsgaun] Thu Jun 19 18:16:36 2025
TYPE : TOUR
DIMENSION : 100
TOUR_SECTION
1
23
50
19
42
39
78
98
68
92
9
62
5
64
15
32
66
85
17
27
31
97
65
56
83
79
25
67
11
100
96
12
28
90
88
24
57
58
84
94
69
3
13
40
46
10
81
48
74
60
22
41
4
75
72
54
89
86
8
61
77
38
95
6
18
44
2
43
99
76
30
55
49
71
51
63
16
20
93
59
33
87
34
73
37
14
26
91
52
80
53
7
70
47
45
21
35
82
29
36
-1
EOF
